% seed = 0

mint = 45;
% maxt = 238;

nActs = 92;
dur = [0,3,2,2,3,1,5,2,1,2,3,3,2,3,2,2,2,2,2,3,3,2,2,2,3,3,3,1,1,2,4,3,2,1,2,4,1,4,3,2,2,2,4,1,3,4,1,3,5,4,1,2,4,2,2,2,4,2,2,3,3,3,2,4,3,2,2,5,2,2,2,2,3,4,5,4,2,4,3,3,2,2,5,2,1,3,6,1,3,4,3,0];

nSkills = 9;
sreq = [| 0,0,0,0,0,0,0,0,0,
	| 0,0,0,1,0,1,0,0,0,
	| 0,0,1,0,0,1,0,1,0,
	| 0,1,2,0,0,2,0,0,1,
	| 0,1,3,1,0,0,1,0,0,
	| 0,0,1,1,2,0,0,1,1,
	| 0,0,1,0,0,0,0,0,0,
	| 0,1,0,0,0,1,0,2,0,
	| 0,0,2,0,2,1,0,0,1,
	| 0,0,1,1,0,2,0,2,0,
	| 0,1,1,0,1,0,0,0,1,
	| 0,0,0,0,0,0,0,0,1,
	| 0,1,1,0,0,0,0,1,1,
	| 0,0,0,0,0,0,0,0,2,
	| 0,1,0,0,0,0,0,1,0,
	| 0,0,1,0,2,1,0,1,0,
	| 0,0,0,0,0,1,0,0,1,
	| 1,0,0,2,1,1,0,0,0,
	| 0,0,1,1,1,1,0,1,0,
	| 0,0,0,0,0,0,0,0,1,
	| 0,0,1,1,1,0,0,1,0,
	| 0,0,0,0,0,2,0,0,0,
	| 0,0,0,0,1,0,0,0,0,
	| 0,0,1,0,0,2,0,0,1,
	| 1,0,1,0,0,1,1,0,0,
	| 0,2,1,0,0,0,0,0,0,
	| 0,1,1,1,0,0,0,2,0,
	| 0,1,1,0,1,1,0,0,0,
	| 0,0,3,1,0,0,0,0,0,
	| 0,0,0,0,0,1,0,0,0,
	| 0,1,1,0,1,1,1,0,0,
	| 0,0,2,0,0,1,1,1,0,
	| 0,0,1,1,2,0,0,1,0,
	| 0,0,1,0,1,1,1,0,1,
	| 0,0,3,0,1,1,1,0,0,
	| 1,0,2,1,0,1,0,0,1,
	| 0,0,1,0,0,1,1,0,1,
	| 1,0,1,1,0,2,0,0,1,
	| 0,1,1,0,1,0,0,0,1,
	| 0,0,3,1,0,2,0,0,0,
	| 0,0,1,0,0,0,0,1,1,
	| 0,0,2,0,1,2,0,0,1,
	| 0,0,1,0,1,1,0,0,0,
	| 0,1,0,1,0,1,0,2,0,
	| 1,1,1,0,1,0,1,0,0,
	| 0,0,1,0,0,1,0,0,0,
	| 0,0,1,0,0,0,0,0,0,
	| 0,2,0,0,2,0,0,0,0,
	| 0,0,0,2,0,1,0,1,0,
	| 0,0,0,0,1,3,1,0,0,
	| 0,0,0,0,0,1,0,0,0,
	| 0,0,1,0,1,1,0,0,0,
	| 0,0,0,1,0,0,1,2,0,
	| 1,0,0,0,1,1,0,0,0,
	| 0,1,1,0,1,1,0,0,1,
	| 0,0,1,0,1,1,0,0,0,
	| 0,1,2,0,1,0,0,2,0,
	| 0,2,1,0,0,1,0,1,0,
	| 0,2,1,0,0,1,0,0,0,
	| 0,0,0,0,0,1,0,0,1,
	| 0,0,0,0,0,1,0,0,0,
	| 0,0,4,0,0,1,0,0,0,
	| 0,0,1,0,0,0,0,0,0,
	| 0,0,1,0,0,0,0,0,0,
	| 0,1,2,0,0,2,0,0,0,
	| 0,2,0,0,0,0,1,0,0,
	| 0,1,2,0,0,0,0,1,0,
	| 0,0,0,1,0,0,1,0,1,
	| 0,0,1,0,2,2,0,0,1,
	| 0,0,0,1,0,0,0,0,1,
	| 0,0,0,0,0,2,0,0,1,
	| 0,0,0,1,1,0,1,1,0,
	| 0,0,3,1,0,1,0,0,1,
	| 0,1,2,1,0,1,0,0,1,
	| 0,0,1,1,0,0,0,1,0,
	| 0,0,1,1,0,0,0,0,0,
	| 0,0,0,0,0,2,0,0,0,
	| 0,1,1,0,1,1,0,0,0,
	| 0,0,0,0,0,0,1,0,1,
	| 0,1,0,2,1,1,0,0,0,
	| 0,0,1,0,0,0,0,0,1,
	| 0,1,0,1,0,1,0,0,1,
	| 0,0,2,0,0,1,0,2,1,
	| 0,1,2,0,0,1,0,2,0,
	| 0,0,3,0,1,0,0,0,1,
	| 0,0,1,1,0,0,0,0,0,
	| 0,0,0,1,0,0,0,0,0,
	| 0,1,0,0,0,1,0,1,0,
	| 0,1,0,1,1,1,0,1,1,
	| 0,0,2,0,1,1,0,2,0,
	| 1,0,3,0,1,0,0,0,0,
	| 0,0,0,0,0,0,0,0,0, |];

% SumOfsreq = 343;

nResources = 18;
mastery = [| true,true,true,false,false,false,false,false,false,
	| false,false,false,true,true,true,false,false,true,
	| false,false,false,false,false,false,false,false,true,
	| false,false,false,false,false,false,true,true,true,
	| false,false,false,false,false,true,false,false,false,
	| false,true,true,false,false,false,false,false,false,
	| false,false,false,false,true,true,false,false,false,
	| false,false,false,false,false,false,false,false,true,
	| false,false,false,true,true,true,false,false,false,
	| false,false,true,false,false,false,false,true,true,
	| false,true,true,false,false,false,false,false,false,
	| false,false,false,true,true,true,false,false,false,
	| false,true,true,false,false,false,false,false,false,
	| false,false,true,false,false,false,false,false,false,
	| false,true,true,false,false,false,true,true,true,
	| false,false,false,false,false,false,false,true,true,
	| false,false,false,true,true,true,false,false,false,
	| false,true,true,false,false,false,false,false,false, |];

nPrecs = 194;
pred = [1,1,1,2,2,2,3,3,3,4,4,4,5,5,6,6,6,7,7,7,8,8,8,9,9,9,10,10,10,11,11,11,12,12,12,13,13,13,14,15,15,15,16,16,16,17,17,17,18,18,18,19,19,19,20,20,20,21,21,22,22,22,23,23,23,24,25,25,25,26,26,26,27,28,28,28,29,30,30,31,31,31,32,32,32,33,33,34,34,34,35,35,35,36,36,36,37,37,37,38,38,38,39,39,39,40,41,41,41,42,42,42,43,43,44,44,44,45,45,46,47,48,48,48,49,49,50,50,50,51,51,52,52,53,53,54,54,55,56,56,57,57,57,58,58,59,60,60,61,61,61,62,63,64,64,65,66,66,66,67,67,68,69,69,70,70,71,72,72,73,74,74,75,76,76,77,77,78,78,79,79,80,81,82,82,83,84,85,86,87,88,89,90,91];
succ = [2,3,4,5,6,7,25,13,80,34,44,60,35,8,9,25,15,59,44,23,17,52,72,10,11,22,73,20,14,18,12,47,57,27,13,34,19,42,61,28,24,16,75,29,32,54,31,62,33,44,55,21,38,40,26,88,24,41,23,65,47,72,50,51,69,36,66,36,47,27,28,30,64,36,29,79,62,65,63,53,45,39,43,53,64,57,46,37,38,39,37,39,48,81,62,86,50,59,67,54,63,70,58,51,59,72,65,50,67,82,52,56,60,61,57,52,56,61,55,49,58,49,51,68,53,54,58,55,56,74,70,66,70,84,60,91,64,74,74,68,66,67,80,82,85,77,79,63,76,68,78,87,90,89,71,71,73,75,69,85,69,81,84,71,73,86,81,77,78,77,75,78,83,85,79,89,84,87,88,82,80,83,90,83,86,91,91,88,87,89,90,92,92,92];

nUnrels = 2369;
unpred = [2,2,3,3,3,3,3,3,3,3,3,3,3,3,3,3,3,3,3,3,3,3,3,3,3,3,3,3,3,3,3,3,3,3,3,3,3,3,3,3,4,4,4,4,4,4,4,4,4,4,4,4,4,4,4,4,4,4,4,4,4,4,4,4,4,4,4,4,4,4,4,4,4,4,4,4,4,4,4,4,4,4,4,4,4,4,5,5,5,5,5,5,5,5,5,5,5,5,5,5,5,5,5,5,5,5,5,5,5,5,5,5,5,5,5,5,5,5,5,5,5,5,5,6,6,6,6,6,6,6,7,7,7,7,7,7,7,7,7,7,7,7,7,7,7,7,7,7,7,7,7,7,7,7,7,7,7,7,7,7,7,7,7,7,7,7,7,7,7,7,7,7,7,7,7,7,7,7,7,7,7,8,8,8,8,8,8,8,8,8,8,8,8,8,8,8,8,8,8,8,8,8,8,8,8,8,8,8,8,8,8,8,8,8,8,8,8,8,8,8,8,8,8,9,9,9,9,9,9,9,9,9,9,10,10,10,10,10,10,10,10,10,10,10,10,10,10,10,10,10,10,10,10,10,10,10,10,10,10,10,10,10,10,10,10,10,10,10,10,10,10,10,10,10,10,10,10,10,10,10,10,11,11,11,11,11,11,11,11,11,11,11,11,11,11,11,11,11,11,11,11,11,11,12,12,12,12,12,12,12,12,12,12,12,12,12,12,12,12,12,12,12,12,12,12,12,12,12,12,12,12,12,12,12,13,13,13,13,13,13,13,13,13,13,13,13,13,13,13,13,13,13,13,13,13,13,13,13,13,13,13,13,13,13,13,13,13,13,14,14,14,14,14,14,14,14,14,14,14,14,14,14,14,14,14,14,14,14,14,14,14,14,14,14,14,14,14,14,14,14,14,14,14,14,14,14,14,14,14,14,14,14,14,14,14,14,14,14,14,14,14,14,14,14,14,14,14,14,14,15,15,15,15,15,15,15,15,15,15,15,15,15,15,15,15,15,15,15,15,15,15,15,15,15,15,15,15,15,15,15,15,15,15,15,15,15,15,15,15,15,15,15,15,15,16,16,16,16,16,16,16,16,16,16,16,16,16,16,16,16,16,16,16,16,16,16,16,16,16,16,16,16,16,16,16,16,16,16,16,16,16,16,16,16,16,16,16,16,16,16,16,16,17,17,17,17,17,17,17,17,17,17,17,17,17,17,17,17,17,17,17,17,17,17,17,17,17,17,17,17,17,17,17,17,17,17,17,17,17,17,18,18,18,18,18,18,18,18,18,18,18,18,18,18,18,18,18,18,18,18,18,18,18,18,18,18,18,18,18,18,18,18,18,18,18,18,19,19,19,19,19,19,19,19,19,19,19,19,19,19,19,19,19,19,19,19,19,19,19,19,19,19,19,19,19,19,19,19,19,19,19,19,20,20,20,20,20,20,20,20,20,20,20,20,20,20,20,20,20,20,20,20,20,20,20,20,20,20,20,20,20,20,20,20,20,20,20,20,20,20,20,20,20,20,20,20,20,20,20,20,21,21,21,21,21,21,21,21,21,21,21,21,21,21,21,21,21,21,21,21,21,21,21,21,21,21,21,21,21,21,21,21,21,21,21,21,21,21,21,21,21,22,22,22,22,22,22,22,22,22,22,22,22,22,22,22,22,22,22,22,22,22,22,22,22,22,22,22,22,22,22,22,22,22,22,22,22,22,22,22,22,22,22,22,22,22,22,22,22,22,22,22,23,23,23,23,23,23,23,23,23,23,23,23,23,23,23,23,23,23,23,23,23,23,23,23,23,23,23,23,23,23,23,23,23,23,23,23,23,23,23,23,23,23,23,24,24,24,24,24,24,24,24,24,24,24,24,24,24,24,24,24,24,24,24,24,24,24,24,24,24,24,24,24,24,24,24,24,24,24,24,24,24,24,24,24,24,24,24,24,24,24,24,24,24,24,24,24,24,24,24,24,24,24,24,25,25,25,25,25,25,25,25,25,25,25,25,25,25,25,25,25,25,25,25,25,25,25,25,25,25,25,25,25,25,25,25,25,25,25,25,25,25,25,25,25,25,25,25,25,26,26,26,26,26,26,26,26,26,26,26,26,26,26,26,26,26,26,26,26,26,26,26,26,26,26,26,26,26,26,26,26,26,26,26,26,26,26,26,26,26,26,26,26,26,27,27,27,27,27,27,27,27,27,27,27,27,27,27,27,27,27,27,27,27,27,27,27,27,27,27,27,27,27,27,27,27,27,27,27,27,27,27,27,27,27,27,27,27,27,27,27,27,27,27,27,27,27,27,27,27,27,27,27,28,28,28,28,28,28,28,28,28,28,28,28,28,28,28,28,28,28,28,28,28,28,28,28,28,28,28,28,28,28,28,28,28,28,28,28,28,28,28,28,28,28,28,28,28,28,28,28,28,28,29,29,29,29,29,29,29,29,29,29,29,29,29,29,29,29,29,29,29,29,29,29,29,29,29,29,29,29,29,29,29,29,29,29,29,29,29,29,29,29,29,29,29,29,29,29,29,29,29,29,29,29,29,29,29,29,29,29,29,30,30,30,30,30,30,30,30,30,30,30,30,30,30,30,30,30,30,30,30,30,30,30,30,30,30,30,30,30,30,30,30,30,30,30,30,30,30,30,30,30,30,30,30,30,30,30,30,30,30,30,30,30,30,30,30,31,31,31,31,31,31,31,31,31,31,31,31,31,31,31,31,31,31,31,31,31,31,31,31,31,31,31,31,31,32,32,32,32,32,32,32,32,32,32,32,32,32,32,32,32,32,32,32,32,32,32,32,32,32,32,32,32,32,32,32,32,32,32,32,32,33,33,33,33,33,33,33,33,33,33,33,33,33,33,33,33,33,33,33,33,33,33,33,33,33,33,33,33,33,33,34,34,34,34,34,34,34,34,34,34,34,34,34,34,34,34,34,34,34,34,34,34,34,34,35,35,35,35,35,35,35,35,35,35,35,35,35,35,35,35,35,35,36,36,36,36,36,36,36,36,36,36,36,36,36,36,36,36,36,36,36,36,36,36,36,36,36,36,36,36,36,36,36,36,36,36,36,36,36,36,36,36,36,36,36,36,36,36,36,36,36,37,37,37,37,37,37,37,37,37,37,37,37,37,37,37,37,37,37,37,37,37,37,37,37,37,37,37,37,37,37,38,38,38,38,38,38,38,38,38,38,38,38,38,38,38,38,38,38,38,38,38,38,38,38,38,38,38,38,38,38,38,38,38,38,38,38,38,38,38,39,39,39,39,39,39,39,39,39,39,39,39,39,39,39,39,39,39,39,39,39,39,39,39,39,39,39,39,39,39,39,39,39,40,40,40,40,40,40,40,40,40,40,40,40,40,40,40,40,40,40,40,40,40,40,40,40,40,40,40,40,40,40,40,40,40,40,40,40,40,40,40,40,40,40,41,41,41,41,41,41,41,41,41,41,41,41,41,41,41,41,41,41,41,41,41,41,41,41,41,41,41,42,42,42,42,42,42,42,42,42,42,42,42,42,42,42,42,42,42,42,42,42,42,42,42,42,42,42,43,43,43,43,43,43,43,43,43,43,43,43,43,43,43,43,43,43,43,43,43,43,43,43,43,43,43,43,43,43,44,44,44,44,44,44,44,44,44,44,44,44,44,44,44,44,44,44,44,44,44,44,45,45,45,45,45,45,45,45,45,45,45,45,45,45,45,45,45,45,45,45,45,45,45,45,45,45,45,46,46,46,46,46,46,46,46,46,46,46,46,46,46,46,46,46,46,46,46,46,46,46,46,46,46,46,47,47,47,47,47,47,47,47,47,47,47,47,47,47,47,47,47,47,47,47,47,47,47,47,47,47,47,47,47,47,47,47,47,47,48,48,48,48,48,48,48,48,48,48,48,48,48,48,48,48,49,49,49,49,49,49,49,49,49,49,49,49,49,49,49,49,49,49,49,49,49,49,49,49,49,50,50,50,50,50,50,50,50,50,50,50,50,50,50,50,50,50,50,50,50,50,50,50,50,51,51,51,51,51,51,51,51,51,51,51,51,51,51,51,51,51,51,51,51,51,51,51,51,51,51,52,52,52,52,52,52,52,52,52,52,52,52,52,52,52,52,52,52,52,52,52,52,52,52,53,53,53,53,53,53,53,53,53,53,53,53,53,53,53,53,53,53,53,53,53,53,53,53,53,53,54,54,54,54,54,54,54,54,54,54,54,54,54,54,54,54,54,54,54,54,54,54,54,54,54,54,54,54,54,54,54,55,55,55,55,55,55,55,55,55,55,55,55,55,55,55,55,55,55,55,55,55,55,55,55,55,55,55,56,56,56,56,56,56,56,56,56,56,56,56,56,56,56,56,56,56,56,56,56,56,56,56,57,57,57,57,57,57,57,57,57,57,57,57,57,57,57,57,57,57,58,58,58,58,58,58,58,58,58,58,58,58,58,58,58,58,58,58,58,58,58,58,58,58,59,59,59,59,59,59,59,59,59,59,59,59,59,59,59,59,59,59,59,59,59,59,59,59,59,59,59,59,60,60,60,60,60,60,60,60,60,60,60,60,60,60,60,60,60,60,60,60,60,61,61,61,61,61,61,61,61,61,61,61,61,61,61,61,62,62,62,62,62,62,62,62,62,62,62,62,62,62,62,62,62,62,62,62,62,62,62,62,62,62,62,63,63,63,63,63,63,63,63,63,63,63,63,63,63,63,63,63,63,63,63,63,63,63,63,63,63,63,64,64,64,64,64,64,64,64,64,64,64,64,64,64,64,64,64,64,64,64,64,64,64,65,65,65,65,65,65,65,65,65,65,65,65,65,65,65,65,65,65,65,65,65,65,65,66,66,66,66,66,66,66,66,66,66,66,66,66,66,67,67,67,67,67,67,67,67,67,67,67,67,67,67,67,67,68,68,68,68,68,68,68,68,68,68,68,68,68,68,68,68,68,68,68,68,68,69,69,69,69,69,69,69,69,69,69,69,69,69,69,69,69,69,70,70,70,70,70,70,70,70,70,70,70,70,70,70,71,71,71,71,71,71,71,71,71,71,71,71,71,71,71,71,71,71,72,72,72,72,72,72,72,72,72,72,72,73,73,73,73,73,73,73,73,73,73,73,73,73,73,74,74,74,74,74,74,74,74,74,75,75,75,75,75,75,75,75,75,75,75,75,75,75,76,76,76,76,77,77,77,77,77,77,77,77,77,77,77,78,78,78,78,78,78,78,78,78,79,79,79,79,79,80,80,80,80,80,80,80,80,80,81,81,81,81,81,81,81,81,81,82,82,82,82,83,83,83,83,83,83,83,84,84,84,84,84,84,85,85,85,85,86,86,86,87,87,87,88,88,89,89,90];
unsucc = [3,4,4,5,6,7,8,9,10,11,12,14,15,16,17,18,20,22,24,26,27,28,29,30,31,32,33,35,43,44,45,46,48,49,53,57,60,61,76,79,5,6,7,8,9,10,11,12,13,14,15,16,17,18,19,20,21,22,23,24,25,26,27,28,29,30,31,32,33,35,36,40,41,42,43,45,46,47,48,49,53,61,62,65,72,76,6,7,9,10,11,12,13,14,15,16,18,19,20,21,22,23,24,25,26,27,28,29,30,32,33,34,36,38,40,41,42,43,44,46,47,57,65,7,8,17,31,35,45,48,8,9,10,11,12,13,14,15,16,17,18,19,20,21,22,24,25,26,27,28,29,30,31,32,33,34,35,36,37,38,39,40,41,42,43,45,46,47,48,49,53,54,60,61,62,63,64,65,72,76,79,9,10,11,12,13,14,15,16,18,19,20,21,22,23,24,25,26,27,28,29,30,32,33,34,35,36,37,38,40,41,42,43,44,46,47,48,49,50,56,57,65,67,15,16,17,25,31,32,35,43,45,48,11,12,13,15,16,17,18,19,21,22,23,25,31,32,33,34,35,37,38,39,40,41,42,43,44,45,46,47,48,49,50,51,52,53,54,55,56,57,58,59,60,66,67,69,70,72,74,75,14,15,16,17,20,22,24,25,26,28,29,30,31,32,35,36,43,45,48,61,62,76,14,15,16,17,18,20,22,24,25,26,28,29,30,31,32,33,35,36,43,44,45,46,47,48,49,53,60,61,62,76,79,14,15,16,17,18,20,22,24,25,26,27,28,29,30,31,32,33,35,36,43,44,45,46,47,48,49,53,57,60,61,62,76,79,80,15,16,17,18,19,20,21,22,23,24,25,26,27,28,29,30,31,32,33,34,35,36,37,38,39,40,41,42,43,44,45,46,47,48,49,50,51,52,53,54,55,56,57,58,59,60,62,63,64,65,66,67,69,70,71,72,73,74,75,77,84,17,18,19,20,21,22,23,25,26,27,30,31,33,34,35,37,38,39,40,41,42,44,45,46,47,48,49,50,51,52,54,55,56,57,58,59,65,66,67,69,70,72,73,74,77,17,18,19,20,21,22,23,24,25,26,27,28,30,31,33,34,35,36,37,38,39,40,41,42,44,45,46,47,48,49,50,51,52,54,55,56,57,58,59,65,66,67,69,70,72,73,74,77,18,19,20,21,22,23,24,25,26,27,28,29,30,32,33,34,35,36,37,38,40,41,42,43,44,46,47,48,49,50,52,56,57,65,66,67,69,72,19,20,21,22,23,24,25,26,27,28,29,30,31,32,34,35,36,37,38,39,40,41,42,43,45,47,48,50,51,58,59,61,62,65,72,76,20,22,24,25,26,27,28,29,30,31,32,33,34,35,36,37,39,42,43,44,45,46,47,48,49,52,53,57,59,60,61,62,66,76,79,80,21,22,23,25,31,32,33,34,35,37,38,39,40,41,42,43,44,45,46,47,48,49,50,51,52,53,54,55,56,57,58,59,60,61,66,67,68,69,70,72,73,74,75,76,77,78,84,85,22,24,25,26,27,28,29,30,31,32,33,34,35,36,37,38,39,40,42,43,44,45,46,47,48,49,52,53,54,57,59,60,61,62,63,64,66,72,76,79,80,23,24,25,26,27,28,29,30,31,32,33,34,35,36,37,38,39,40,41,42,43,44,45,46,48,49,50,51,52,53,54,55,56,57,59,60,61,62,63,64,66,67,68,69,70,73,74,75,76,79,80,24,25,26,27,28,29,30,31,32,33,34,35,36,37,38,39,40,41,42,43,44,45,46,47,48,49,52,53,54,57,59,60,61,62,63,64,65,66,67,72,76,79,80,25,26,27,28,29,30,31,32,33,34,35,37,38,39,40,41,42,43,44,45,46,47,48,49,50,51,52,53,54,55,56,57,58,59,60,61,63,64,65,66,67,68,69,70,71,72,73,74,75,76,77,78,79,80,82,83,84,85,88,91,26,27,28,29,30,31,32,33,34,35,37,38,39,40,41,42,43,44,45,46,48,49,50,51,52,53,54,55,56,57,59,60,61,63,64,65,67,68,70,72,74,76,78,79,80,31,32,33,34,35,37,38,39,40,41,42,43,44,45,46,47,48,49,50,51,52,53,54,55,56,57,58,59,60,61,66,67,68,69,70,72,73,74,75,76,77,78,84,85,88,28,29,30,31,32,33,34,35,36,37,38,39,40,41,42,43,44,45,46,47,48,49,50,51,52,53,54,55,56,57,58,59,60,61,62,63,65,66,67,68,69,70,72,73,74,75,76,77,78,79,80,82,83,84,85,86,87,88,91,30,31,32,33,34,35,37,38,39,40,41,42,43,44,45,46,47,48,49,50,51,52,53,54,55,56,57,58,59,60,61,63,64,65,66,67,68,69,70,71,72,73,74,75,76,77,78,84,85,88,30,31,32,33,34,35,36,37,38,39,40,41,42,43,44,45,46,47,48,49,50,51,52,53,54,55,56,57,58,59,60,61,63,64,65,66,67,68,69,70,71,72,73,74,75,76,77,78,79,80,81,82,83,84,85,86,88,90,91,31,32,33,34,35,36,37,38,39,40,41,42,43,44,45,46,47,48,49,50,51,52,53,54,55,56,57,58,59,60,61,62,64,66,67,68,69,70,72,73,74,75,76,77,78,79,80,82,83,84,85,86,87,88,89,91,32,33,34,35,36,37,38,40,41,42,43,44,46,47,48,49,50,52,54,56,57,62,64,65,66,67,69,71,72,33,34,35,36,37,38,39,40,41,42,44,45,46,47,48,49,50,51,52,54,55,56,57,58,59,62,65,66,67,69,70,72,73,74,75,77,34,35,36,37,38,39,40,41,42,43,44,45,47,48,50,51,52,55,56,58,59,61,62,65,68,70,72,74,76,78,35,36,40,41,42,43,44,45,46,47,48,49,52,53,57,60,61,62,65,66,72,76,79,80,36,38,40,41,42,43,44,45,46,47,52,57,61,62,65,66,72,76,37,38,39,40,41,42,43,44,45,46,47,48,49,50,51,52,53,54,55,56,57,58,59,60,61,63,64,65,66,67,68,69,70,71,72,73,74,75,76,77,78,79,80,82,83,84,85,88,91,38,39,40,41,42,43,44,45,46,47,48,49,51,52,53,54,57,60,61,62,63,64,65,66,70,72,73,76,79,80,39,40,41,42,43,44,45,46,47,48,49,50,51,52,53,55,56,57,58,59,60,61,62,65,66,67,68,69,72,74,75,76,78,79,80,82,83,85,88,40,41,42,43,44,45,46,47,48,49,50,52,53,54,55,56,57,60,61,62,63,64,65,66,67,68,69,71,72,76,79,80,81,41,42,43,44,45,46,47,48,49,50,51,52,53,54,55,56,57,58,59,60,61,62,63,64,65,66,67,68,69,70,71,73,74,75,76,79,80,81,82,83,85,86,42,43,44,45,46,47,48,49,51,52,53,54,57,59,60,61,62,63,64,66,70,72,73,76,77,79,80,43,44,45,46,47,48,49,50,51,53,54,55,57,58,59,60,61,62,63,64,65,67,72,76,79,80,85,44,45,46,47,48,49,50,51,52,53,54,55,56,57,58,59,62,64,65,66,67,69,70,71,72,73,74,75,77,84,45,46,47,48,49,50,51,53,54,55,58,59,60,61,62,63,64,65,72,76,79,82,46,47,48,49,50,51,52,53,54,56,57,58,59,60,62,63,64,65,66,67,69,70,71,72,73,77,84,47,48,50,51,52,55,56,57,58,59,61,62,65,66,67,68,69,70,72,73,74,75,76,77,78,85,88,48,49,50,51,52,53,54,55,56,57,59,60,61,62,63,64,65,66,67,68,69,70,71,72,73,74,75,76,77,78,79,80,81,84,50,52,55,56,57,58,59,61,62,65,66,67,69,72,76,85,50,51,52,55,56,57,58,59,61,62,65,66,67,68,69,70,72,73,74,75,76,77,78,85,88,51,52,53,54,57,59,60,61,62,63,64,65,66,67,69,70,71,72,73,76,77,79,80,84,52,53,54,55,56,57,58,59,60,61,62,63,64,65,66,67,68,69,71,72,76,79,80,81,82,85,53,54,55,56,57,58,59,60,61,62,63,64,65,67,68,72,74,76,78,79,80,82,85,88,54,55,56,57,58,59,61,62,64,65,66,67,68,69,70,71,72,73,74,75,76,77,78,81,85,88,55,56,57,58,59,60,61,62,63,65,66,67,68,69,70,72,73,74,75,76,77,78,79,80,82,83,84,85,86,87,88,56,57,58,59,60,61,62,63,64,65,66,67,68,69,70,71,72,73,76,77,79,80,81,82,84,85,86,57,58,59,60,61,62,63,64,65,66,67,69,70,71,72,73,76,77,79,80,82,84,85,86,58,59,60,61,62,63,64,65,68,70,72,74,76,78,79,82,86,87,59,60,61,62,63,64,65,66,67,68,69,70,71,72,73,74,75,76,77,78,79,80,81,84,60,61,62,63,64,65,66,67,68,69,70,71,72,73,74,75,76,78,79,80,81,82,83,85,86,87,88,90,61,62,64,65,66,67,68,69,70,71,72,73,74,75,76,77,78,81,84,85,88,62,63,64,65,66,67,69,70,71,72,73,74,75,77,84,63,64,65,66,67,68,69,70,71,72,73,74,75,76,77,78,79,80,81,82,83,84,85,86,88,90,91,64,65,66,67,68,69,70,71,72,73,74,75,76,77,78,79,80,81,82,83,84,85,86,87,88,89,91,65,66,67,68,69,70,72,73,74,75,76,77,78,79,80,82,83,84,85,86,87,88,91,66,67,68,69,70,72,73,74,75,76,77,78,79,80,82,83,84,85,86,87,88,89,91,67,68,70,72,74,76,78,79,80,82,85,86,87,88,68,70,72,73,74,75,76,77,78,79,80,82,83,86,87,89,69,70,71,72,73,74,75,76,77,78,79,80,82,83,84,85,86,87,88,89,91,70,72,73,74,75,76,77,78,79,80,82,83,85,86,87,88,89,71,72,74,75,76,78,79,80,81,82,83,85,88,90,72,73,74,75,76,77,78,79,80,82,83,84,85,86,87,88,89,91,73,74,75,76,79,80,81,82,83,85,86,74,75,76,78,79,80,81,82,83,85,86,87,88,90,76,77,79,80,81,82,84,85,86,76,77,78,79,80,81,82,84,85,86,87,88,89,90,77,78,81,84,78,79,80,81,82,83,85,86,87,88,90,79,80,81,82,83,84,85,86,91,81,84,85,88,90,81,82,84,85,86,87,88,89,90,82,83,84,85,86,87,88,89,91,84,85,88,90,84,85,86,87,88,89,90,85,86,87,88,89,90,86,87,89,91,88,90,91,88,90,91,89,91,90,91,91];

USEFUL_RES = [{},
	{2,5,7,9,12,17},
	{1,2,4,5,6,7,9,10,11,12,13,14,15,16,17,18},
	{1,2,3,4,5,6,7,8,9,10,11,12,13,14,15,16,17,18},
	{1,2,4,6,9,10,11,12,13,14,15,17,18},
	{1,2,3,4,6,7,8,9,10,11,12,13,14,15,16,17,18},
	{1,6,10,11,13,14,15,18},
	{1,2,4,5,6,7,9,10,11,12,13,15,16,17,18},
	{1,2,3,4,5,6,7,8,9,10,11,12,13,14,15,16,17,18},
	{1,2,4,5,6,7,9,10,11,12,13,14,15,16,17,18},
	{1,2,3,4,6,7,8,9,10,11,12,13,14,15,16,17,18},
	{2,3,4,8,10,15,16},
	{1,2,3,4,6,8,10,11,13,14,15,16,18},
	{2,3,4,8,10,15,16},
	{1,4,6,10,11,13,15,16,18},
	{1,2,4,5,6,7,9,10,11,12,13,14,15,16,17,18},
	{2,3,4,5,7,8,9,10,12,15,16,17},
	{1,2,5,7,9,12,17},
	{1,2,4,5,6,7,9,10,11,12,13,14,15,16,17,18},
	{2,3,4,8,10,15,16},
	{1,2,4,6,7,9,10,11,12,13,14,15,16,17,18},
	{2,5,7,9,12,17},
	{2,7,9,12,17},
	{1,2,3,4,5,6,7,8,9,10,11,12,13,14,15,16,17,18},
	{1,2,4,5,6,7,9,10,11,12,13,14,15,17,18},
	{1,6,10,11,13,14,15,18},
	{1,2,4,6,9,10,11,12,13,14,15,16,17,18},
	{1,2,5,6,7,9,10,11,12,13,14,15,17,18},
	{1,2,6,9,10,11,12,13,14,15,17,18},
	{2,5,7,9,12,17},
	{1,2,4,5,6,7,9,10,11,12,13,14,15,17,18},
	{1,2,4,5,6,7,9,10,11,12,13,14,15,16,17,18},
	{1,2,4,6,7,9,10,11,12,13,14,15,16,17,18},
	{1,2,3,4,5,6,7,8,9,10,11,12,13,14,15,16,17,18},
	{1,2,4,5,6,7,9,10,11,12,13,14,15,17,18},
	{1,2,3,4,5,6,7,8,9,10,11,12,13,14,15,16,17,18},
	{1,2,3,4,5,6,7,8,9,10,11,12,13,14,15,16,17,18},
	{1,2,3,4,5,6,7,8,9,10,11,12,13,14,15,16,17,18},
	{1,2,3,4,6,7,8,9,10,11,12,13,14,15,16,17,18},
	{1,2,5,6,7,9,10,11,12,13,14,15,17,18},
	{1,2,3,4,6,8,10,11,13,14,15,16,18},
	{1,2,3,4,5,6,7,8,9,10,11,12,13,14,15,16,17,18},
	{1,2,5,6,7,9,10,11,12,13,14,15,17,18},
	{1,2,4,5,6,7,9,10,11,12,13,15,16,17,18},
	{1,2,4,6,7,9,10,11,12,13,14,15,17,18},
	{1,2,5,6,7,9,10,11,12,13,14,15,17,18},
	{1,6,10,11,13,14,15,18},
	{1,2,6,7,9,11,12,13,15,17,18},
	{2,4,5,7,9,10,12,15,16,17},
	{2,4,5,7,9,12,15,17},
	{2,5,7,9,12,17},
	{1,2,5,6,7,9,10,11,12,13,14,15,17,18},
	{2,4,9,10,12,15,16,17},
	{1,2,5,7,9,12,17},
	{1,2,3,4,5,6,7,8,9,10,11,12,13,14,15,16,17,18},
	{1,2,5,6,7,9,10,11,12,13,14,15,17,18},
	{1,2,4,6,7,9,10,11,12,13,14,15,16,17,18},
	{1,2,4,5,6,7,9,10,11,12,13,14,15,16,17,18},
	{1,2,5,6,7,9,10,11,12,13,14,15,17,18},
	{2,3,4,5,7,8,9,10,12,15,16,17},
	{2,5,7,9,12,17},
	{1,2,5,6,7,9,10,11,12,13,14,15,17,18},
	{1,6,10,11,13,14,15,18},
	{1,6,10,11,13,14,15,18},
	{1,2,5,6,7,9,10,11,12,13,14,15,17,18},
	{1,4,6,11,13,15,18},
	{1,4,6,10,11,13,14,15,16,18},
	{2,3,4,8,9,10,12,15,16,17},
	{1,2,3,4,5,6,7,8,9,10,11,12,13,14,15,16,17,18},
	{2,3,4,8,9,10,12,15,16,17},
	{2,3,4,5,7,8,9,10,12,15,16,17},
	{2,4,7,9,10,12,15,16,17},
	{1,2,3,4,5,6,7,8,9,10,11,12,13,14,15,16,17,18},
	{1,2,3,4,5,6,7,8,9,10,11,12,13,14,15,16,17,18},
	{1,2,4,6,9,10,11,12,13,14,15,16,17,18},
	{1,2,6,9,10,11,12,13,14,15,17,18},
	{2,5,7,9,12,17},
	{1,2,5,6,7,9,10,11,12,13,14,15,17,18},
	{2,3,4,8,10,15,16},
	{1,2,5,6,7,9,11,12,13,15,17,18},
	{1,2,3,4,6,8,10,11,13,14,15,16,18},
	{1,2,3,4,5,6,7,8,9,10,11,12,13,15,16,17,18},
	{1,2,3,4,5,6,7,8,9,10,11,12,13,14,15,16,17,18},
	{1,2,4,5,6,7,9,10,11,12,13,14,15,16,17,18},
	{1,2,3,4,6,7,8,9,10,11,12,13,14,15,16,17,18},
	{1,2,6,9,10,11,12,13,14,15,17,18},
	{2,9,12,17},
	{1,2,4,5,6,7,9,10,11,12,13,15,16,17,18},
	{1,2,3,4,5,6,7,8,9,10,11,12,13,15,16,17,18},
	{1,2,4,5,6,7,9,10,11,12,13,14,15,16,17,18},
	{1,2,6,7,9,10,11,12,13,14,15,17,18},
	{}];

POTENTIAL_ACT = [{3,4,5,6,7,8,9,10,11,13,15,16,18,19,21,24,25,26,27,28,29,31,32,33,34,35,36,37,38,39,40,41,42,43,44,45,46,47,48,52,54,55,56,57,58,59,62,63,64,65,66,67,69,73,74,75,76,78,80,81,82,83,84,85,86,88,89,90,91},
	{2,3,4,5,6,8,9,10,11,12,13,14,16,17,18,19,20,21,22,23,24,25,27,28,29,30,31,32,33,34,35,36,37,38,39,40,41,42,43,44,45,46,48,49,50,51,52,53,54,55,56,57,58,59,60,61,62,65,68,69,70,71,72,73,74,75,76,77,78,79,80,81,82,83,84,85,86,87,88,89,90,91},
	{4,6,9,11,12,13,14,17,20,24,34,36,37,38,39,41,42,55,60,68,69,70,71,73,74,79,81,82,83,85,89},
	{3,4,5,6,8,9,10,11,12,13,14,15,16,17,19,20,21,24,25,27,31,32,33,34,35,36,37,38,39,41,42,44,45,49,50,53,55,57,58,60,66,67,68,69,70,71,72,73,74,75,79,81,82,83,84,85,88,89,90},
	{2,3,4,8,9,10,16,17,18,19,22,24,25,28,30,31,32,34,35,36,37,38,40,42,43,44,46,49,50,51,52,54,55,56,58,59,60,61,62,65,69,71,73,74,77,78,80,82,83,84,88,89,90},
	{3,4,5,6,7,8,9,10,11,13,15,16,19,21,24,25,26,27,28,29,31,32,33,34,35,36,37,38,39,40,41,42,43,44,45,46,47,48,52,55,56,57,58,59,62,63,64,65,66,67,69,73,74,75,76,78,80,81,82,83,84,85,86,88,89,90,91},
	{2,3,4,6,8,9,10,11,16,17,18,19,21,22,23,24,25,28,30,31,32,33,34,35,36,37,38,39,40,42,43,44,45,46,48,49,50,51,52,54,55,56,57,58,59,60,61,62,65,69,71,72,73,74,77,78,80,82,83,84,85,88,89,90,91},
	{4,6,9,11,12,13,14,17,20,24,34,36,37,38,39,41,42,55,60,68,69,70,71,73,74,79,81,82,83,85,89},
	{2,3,4,5,6,8,9,10,11,16,17,18,19,21,22,23,24,25,27,28,29,30,31,32,33,34,35,36,37,38,39,40,42,43,44,45,46,48,49,50,51,52,53,54,55,56,57,58,59,60,61,62,65,68,69,70,71,72,73,74,75,76,77,78,80,82,83,84,85,86,87,88,89,90,91},
	{3,4,5,6,7,8,9,10,11,12,13,14,15,16,17,19,20,21,24,25,26,27,28,29,31,32,33,34,35,36,37,38,39,40,41,42,43,44,45,46,47,49,52,53,55,56,57,58,59,60,62,63,64,65,67,68,69,70,71,72,73,74,75,76,78,79,81,82,83,84,85,86,88,89,90,91},
	{3,4,5,6,7,8,9,10,11,13,15,16,19,21,24,25,26,27,28,29,31,32,33,34,35,36,37,38,39,40,41,42,43,44,45,46,47,48,52,55,56,57,58,59,62,63,64,65,66,67,69,73,74,75,76,78,80,81,82,83,84,85,86,88,89,90,91},
	{2,3,4,5,6,8,9,10,11,16,17,18,19,21,22,23,24,25,27,28,29,30,31,32,33,34,35,36,37,38,39,40,42,43,44,45,46,48,49,50,51,52,53,54,55,56,57,58,59,60,61,62,65,68,69,70,71,72,73,74,75,76,77,78,80,82,83,84,85,86,87,88,89,90,91},
	{3,4,5,6,7,8,9,10,11,13,15,16,19,21,24,25,26,27,28,29,31,32,33,34,35,36,37,38,39,40,41,42,43,44,45,46,47,48,52,55,56,57,58,59,62,63,64,65,66,67,69,73,74,75,76,78,80,81,82,83,84,85,86,88,89,90,91},
	{3,4,5,6,7,9,10,11,13,16,19,21,24,25,26,27,28,29,31,32,33,34,35,36,37,38,39,40,41,42,43,45,46,47,52,55,56,57,58,59,62,63,64,65,67,69,73,74,75,76,78,81,83,84,85,86,90,91},
	{3,4,5,6,7,8,9,10,11,12,13,14,15,16,17,19,20,21,24,25,26,27,28,29,31,32,33,34,35,36,37,38,39,40,41,42,43,44,45,46,47,48,49,50,52,53,55,56,57,58,59,60,62,63,64,65,66,67,68,69,70,71,72,73,74,75,76,78,79,80,81,82,83,84,85,86,88,89,90,91},
	{3,4,6,8,9,10,11,12,13,14,15,16,17,19,20,21,24,27,32,33,34,36,37,38,39,41,42,44,49,53,55,57,58,60,67,68,69,70,71,72,73,74,75,79,81,82,83,84,85,88,89,90},
	{2,3,4,5,6,8,9,10,11,16,17,18,19,21,22,23,24,25,27,28,29,30,31,32,33,34,35,36,37,38,39,40,42,43,44,45,46,48,49,50,51,52,53,54,55,56,57,58,59,60,61,62,65,68,69,70,71,72,73,74,75,76,77,78,80,82,83,84,85,86,87,88,89,90,91},
	{3,4,5,6,7,8,9,10,11,13,15,16,19,21,24,25,26,27,28,29,31,32,33,34,35,36,37,38,39,40,41,42,43,44,45,46,47,48,52,55,56,57,58,59,62,63,64,65,66,67,69,73,74,75,76,78,80,81,82,83,84,85,86,88,89,90,91}];
